50, 125050
44, 5003
49, 5001
32, 5004
13, 5001
25, 5000
41, 5001
38, 5000
21, 5001
50, 5001
15, 5002
13, 5000
21, 5003
15, 5002
21, 5003
43, 5001
33, 5004
5, 5001
21, 5002
45, 5004
7, 5003
4, 5003
26, 5000
44, 5004
43, 5004
9, 5004
22, 5001
17, 5000
19, 5000
47, 5002
47, 5004
45, 5002
17, 5002
3, 5001
15, 5001
24, 5004
41, 5002
32, 5000
4, 5004
49, 5003
29, 5004
42, 5004
47, 5000
14, 5004
11, 5000
32, 5001
30, 5000
30, 5004
49, 5001
14, 5002
34, 5002
